571470
571470
571470
569441
566782
566395
563063
547795
547795
547795
547795
545789
545789
545789
533634
533634
533634
533634
533634
531831
531831
531531
531531
531531
530404
530404
528002
528002
520748
520748
512374
512374
512374
512374
512374
512374
512374
512374
512374
512374
502185
502185
502185
502185
502185
502185
502185
502185
502185
501533
500017
500017
498341
498341
486968
486968
486968
486968
486968
486968
486968
486818
486818
486818
486818
486818
483688
483688
483688
476150
476150
476150
476150
476150
476150
476150
474866
474866
474866
474866
474866
474866
473328
473328
467851
467851
467851
467851
467851
467851
456990
456990
456990
456990
456990
456990
456990
456990
452544
452544
